webassembly/ejemplos_dzn/folder16_json_91.dzn
TERM = { '.', 's(2)', 's(5)', 's(4)', 'in_1', 'local_0', 'local_1', 'in_6', 'in_2', 'in_4', 'in_3', 's(6)', 's(1)', 's(0)', 'in_7', 'in_5', 's(3)', 'in_0'};
null = '.';
s = 16;
n = 13;
ndeps = 7;
max_registers_sz = 5;
NR = 2;
registers = [|'local_0', 'in_6', |'local_1', 's(5)'|];
dependencies = [|'i32.store_0', 'i32.store16_1', |'i32.store16_1', 'i32.load8_s_2', |'i32.load8_s_2', 'i32.store8_4', |'i32.store8_4', 'i32.store8_8', |'i32.store8_8', 'i32.load16_u_10', |'i32.store8_8', 'i32.load8_s_11', |'i32.store8_8', 'i32.load16_u_13'|];
GET_ENUM = { GET1, GET2, GET3, GET4, GET5, GET6, GET7};
SET_ENUM = { SET1, SET2, SET3, SET4, SET5, SET6, SET7};
TEE_ENUM = { TEE1, TEE2, TEE3, TEE4, TEE5, TEE6, TEE7};
N = 11;
OP = { 'i32.const_0', 'i32.sub_0', 'i32.store_0', 'i32.store16_1', 'i32.load8_s_2', 'i32.store8_4', 'i32.const_1', 'i32.store8_8', 'i32.load16_u_10', 'i32.load8_s_11', 'i32.load16_u_13' };
in_ops = [0, 2, 2, 2, 1, 2, 0, 2, 1, 1, 1 ];
out_ops = [1, 1, 0, 0, 1, 0, 1, 0, 1, 1, 1 ];
in1 = ['.', 's(5)', 'in_0', 'in_2', 'in_4', 'local_0', '.', 's(6)', 'in_7', 's(1)', 'in_6' ];
in2 = ['.', 's(3)', 'in_1', 'in_3', '.', 's(0)', '.', 'in_5', '.', '.', '.' ];
in3 = ['.', '.', '.', '.', '.', '.', '.', '.', '.', '.', '.' ];
out1 = ['s(5)', 's(4)', '.', '.', 's(0)', '.', 's(6)', '.', 's(1)', 's(2)', 's(3)' ];
out2 = ['.', '.', '.', '.', '.', '.', '.', '.', '.', '.', '.' ];
out3 = ['.', '.', '.', '.', '.', '.', '.', '.', '.', '.', '.' ];
comm = [false, false, false, false, false, false, false, false, false, false, false ];
gas = [1, 1, 1, 1, 1, 1, 1, 1, 1, 1, 1 ];
sz = [1, 1, 1, 1, 1, 1, 1, 1, 1, 1, 1 ];
stor = [false, false, true, true, false, true, false, true, false, false, false ];
lb = [ 1, 1, 1, 1, 1, 1, 1, 1, 1, 1, 1 ];
ub = [ 16, 16, 16, 16, 16, 16, 16, 16, 16, 16, 16 ];
startstack = [ 'in_0', 'in_1', 'in_2', 'in_3', 'in_4', 'in_5', 'in_6', 'in_7', null, null, null, null, null ];
endstack = [ 's(4)', 's(2)', null, null, null, null, null, null, null, null, null, null, null ];
